% Auto-generated by scripts/generate_dzn.py
% problem_type   = regex
% instance       = regex_26
% source_json    = instances_json/1_medium_blowup/regex_26.json
% blowup         = 8.52
% representation = NFA

mode = 1;

var_count = 23;
n_constraints = 2;
Q = 13;
S = 3;
q0 = [1, 1];
F = [{12}, {13}];
weights = [10, 5, 1, 5, 6, 1, 9, 2, 1, 5, 6, 7, 9, 10, 1, 7, 6, 9, 3, 2, 1, 9, 10];
d_dfa = array3d(1..2, 1..13, 1..3, [
  % k = 1
    0, 0, 0,
    0, 0, 0,
    0, 0, 0,
    0, 0, 0,
    0, 0, 0,
    0, 0, 0,
    0, 0, 0,
    0, 0, 0,
    0, 0, 0,
    0, 0, 0,
    0, 0, 0,
    0, 0, 0,
    0, 0, 0,

  % k = 2
    0, 0, 0,
    0, 0, 0,
    0, 0, 0,
    0, 0, 0,
    0, 0, 0,
    0, 0, 0,
    0, 0, 0,
    0, 0, 0,
    0, 0, 0,
    0, 0, 0,
    0, 0, 0,
    0, 0, 0,
    0, 0, 0
]);
d_nfa = array3d(1..2, 1..13, 1..3, [
  % k = 1
    {1}, {1, 2}, {1},
    {3}, {}, {},
    {}, {4}, {},
    {5}, {5}, {5},
    {6}, {6}, {6},
    {7}, {7}, {7},
    {8}, {8}, {8},
    {9}, {9}, {9},
    {10}, {10}, {10},
    {11}, {11}, {11},
    {12}, {12}, {12},
    {}, {}, {},
    {}, {}, {},

  % k = 2
    {1}, {1}, {2},
    {2}, {2}, {3},
    {3}, {3}, {4},
    {4}, {4}, {5},
    {5}, {5}, {6},
    {6}, {6}, {7},
    {7}, {7}, {8},
    {8}, {8}, {9},
    {9}, {9}, {10},
    {10}, {10}, {11},
    {11}, {11}, {12},
    {12}, {12}, {13},
    {13}, {13}, {}
]);
